
c--------------------------------------------------------------
c	Ferhat Erata
c	CPSC 454/554
c	Tue Nov 26 2019	22:50:32
c--------------------------------------------------------------
c 10 80
c 6 -1 -9 1 -7 8 9 2 
c -8 4 
c 9 3 -1 -1 -9 4 -5 9 
c 2 -4 4 -1 -5 -5 -8 9 6 
c 10 3 -5 
c -3 -5 1 -9 8 6 -2 
c -1 -6 
c 2 10 -3 -1 -2 -5 -1 3 
c 10 -9 2 6 
c 8 8 3 4 5 4 -10 5 6 3 
c -1 -10 8 7 -5 5 -6 5 
c 4 7 -6 -3 1 9 
c 1 -9 2 -10 8 4 -2 -6 
c -5 -10 -9 -9 -9 -9 -2 5 10 
c -1 4 
c 5 -4 4 6 -7 1 
c 8 
c -2 10 -5 10 -4 
c 4 4 1 -5 8 -4 -9 
c -1 8 2 -7 1 8 7 -6 2 -2 
c -5 8 -4 6 -2 -3 -7 2 
c 9 6 -3 2 -9 
c -8 -1 -7 -5 
c 3 
c -6 -6 
c -4 
c 10 -3 -10 -5 10 1 7 -2 -10 
c 7 6 9 -8 4 -10 10 -9 -10 
c -2 -4 9 -2 
c -5 5 6 9 -2 -7 -9 
c 9 -1 -2 -5 
c -1 -1 9 10 
c -7 10 6 -9 5 2 6 -5 1 1 
c 5 5 -10 10 -4 -2 -2 -4 
c -5 -4 2 10 1 
c -1 -5 -5 7 4 
c 10 2 -10 3 
c -8 -8 10 10 3 
c 5 -5 -7 -8 
c 8 
c -3 2 2 -6 -8 6 1 -7 -10 
c 10 -7 -7 -4 10 6 9 9 
c 10 -1 -4 10 
c 8 8 7 2 -2 -1 
c -9 -1 5 4 2 1 -8 -6 -1 
c -6 8 1 
c -1 -1 6 -6 -6 3 1 -8 3 3 
c -4 4 9 -6 3 -7 -8 7 -9 -4 
c -3 8 
c 6 -5 7 5 6 -6 -4 -5 8 
c -2 -3 -8 -8 -6 9 -6 7 9 
c 8 5 2 
c 2 7 -9 9 8 
c 5 -1 -10 8 1 -2 10 1 
c -9 -10 -1 -1 -8 -8 -8 -7 9 
c 2 -7 -6 8 -2 -3 6 -8 
c -10 5 -10 9 6 2 -2 
c 4 -5 5 1 -2 7 -9 -1 -5 8 
c 7 -10 10 
c 8 6 4 9 3 6 
c -1 -4 3 -2 7 -8 -8 
c -2 
c -8 5 -10 
c -5 -5 6 -10 2 -1 4 2 -4 4 
c -5 1 7 -6 -9 -9 -8 8 7 
c 9 7 8 -4 8 -6 
c -9 9 2 -3 9 7 -8 -10 -8 
c -4 
c -9 -8 
c -8 -1 
c 8 -10 -1 -1 -8 -5 5 -6 -7 -10 
c 3 -5 -10 5 9 
c -1 7 -5 3 -3 
c 3 1 5 3 5 
c 7 9 7 9 4 -10 6 9 
c 6 4 5 
c -3 4 -1 -1 -5 -2 -7 -1 8 -3 
c -5 2 7 2 -10 -4 -10 -10 7 6 
c -8 10 -1 9 
c 7 -4 -1 -7 
s UNSATISFIABLE
c--------------------------------------------------------------
c statistics of ../../bench1/unsat/10-80.cnf:
c [ mem_used: 823, conflicts: 0, max_lemmas: 2000 ]
c--------------------------------------------------------------
c	Normal termination.
